objective value:                                2e-09
h-1,15                                           0.01 	(obj:0)
h-1,44                                           0.01 	(obj:0)
h-1,45                                           0.01 	(obj:0)
h-1,58                                           0.01 	(obj:0)
h-1,73                                           0.01 	(obj:0)
h-1,80                                           0.01 	(obj:0)
h-1,81                                           0.01 	(obj:0)
h-1,86                                           0.01 	(obj:0)
h-1,89                                           0.01 	(obj:0)
h-1,109                                          0.01 	(obj:0)
h-1,113                                          0.01 	(obj:0)
h-1,114                                          0.01 	(obj:0)
h-1,115                                          0.01 	(obj:0)
h-1,116                                          0.01 	(obj:0)
h-1,118                                          0.01 	(obj:0)
h-1,119                                          0.01 	(obj:0)
h-1,120                                          0.01 	(obj:0)
h-1,121                                          0.01 	(obj:0)
h-1,122                                          0.01 	(obj:0)
h-1,123                                          0.01 	(obj:0)
h-1,124                                          0.01 	(obj:0)
h-1,128                             0.139019613862038 	(obj:0)
h-1,129                             0.986078431606293 	(obj:0)
h-1,130                             0.417450984716415 	(obj:0)
h-1,137                                          0.01 	(obj:0)
h-1,138                                          0.01 	(obj:0)
h-1,142                                          0.01 	(obj:0)
h-1,143                                          0.01 	(obj:0)
h-1,144                                          0.01 	(obj:0)
h-1,145                                          0.01 	(obj:0)
h-1,146                                          0.01 	(obj:0)
h-1,147                                          0.01 	(obj:0)
h-1,148                                          0.01 	(obj:0)
h-1,149                                          0.01 	(obj:0)
h-1,150                                          0.01 	(obj:0)
h-1,151                                          0.01 	(obj:0)
h-1,156                             0.331176480054855 	(obj:0)
h-1,157                             0.978235294818878 	(obj:0)
h-1,158                             0.311568638086319 	(obj:0)
h-1,165                                          0.01 	(obj:0)
h-1,169                                          0.01 	(obj:0)
h-1,170                                          0.01 	(obj:0)
h-1,171                                          0.01 	(obj:0)
h-1,172                                          0.01 	(obj:0)
h-1,173                                          0.01 	(obj:0)
h-1,174                                          0.01 	(obj:0)
h-1,175                                          0.01 	(obj:0)
h-1,176                                          0.01 	(obj:0)
h-1,177                                          0.01 	(obj:0)
h-1,178                                          0.01 	(obj:0)
h-1,179                                          0.01 	(obj:0)
h-1,180                                          0.01 	(obj:0)
h-1,181                                          0.01 	(obj:0)
h-1,182                                          0.01 	(obj:0)
h-1,183                                          0.01 	(obj:0)
h-1,184                             0.539411792755127 	(obj:0)
h-1,185                             0.955098042488098 	(obj:0)
h-1,186                                          0.01 	(obj:0)
h-1,189                                          0.01 	(obj:0)
h-1,195                                          0.01 	(obj:0)
h-1,196                                          0.01 	(obj:0)
h-1,197                                          0.01 	(obj:0)
h-1,198                                          0.01 	(obj:0)
h-1,199                                          0.01 	(obj:0)
h-1,200                                          0.01 	(obj:0)
h-1,201                                          0.01 	(obj:0)
h-1,202                                          0.01 	(obj:0)
h-1,203                                          0.01 	(obj:0)
h-1,204                                          0.01 	(obj:0)
h-1,205                                          0.01 	(obj:0)
h-1,206                                          0.01 	(obj:0)
h-1,207                                          0.01 	(obj:0)
h-1,208                                          0.01 	(obj:0)
h-1,209                                          0.01 	(obj:0)
h-1,210                                          0.01 	(obj:0)
h-1,211                             0.186470592617989 	(obj:0)
h-1,212                              0.96686274766922 	(obj:0)
h-1,213                             0.598235318660736 	(obj:0)
h-1,216                                          0.01 	(obj:0)
h-1,222                                          0.01 	(obj:0)
h-1,223                                          0.01 	(obj:0)
h-1,225                                          0.01 	(obj:0)
h-1,226                                          0.01 	(obj:0)
h-1,227                                          0.01 	(obj:0)
h-1,228                                          0.01 	(obj:0)
h-1,229                                          0.01 	(obj:0)
h-1,230                                          0.01 	(obj:0)
h-1,231                                          0.01 	(obj:0)
h-1,232                                          0.01 	(obj:0)
h-1,233                                          0.01 	(obj:0)
h-1,234                                          0.01 	(obj:0)
h-1,235                                          0.01 	(obj:0)
h-1,236                                          0.01 	(obj:0)
h-1,237                                          0.01 	(obj:0)
h-1,238                                          0.01 	(obj:0)
h-1,239                             0.339411774873734 	(obj:0)
h-1,240                                             1 	(obj:0)
h-1,241                              0.25705882370472 	(obj:0)
h-1,242                                          0.01 	(obj:0)
h-1,243                                          0.01 	(obj:0)
h-1,245                                          0.01 	(obj:0)
h-1,246                                          0.01 	(obj:0)
h-1,250                                          0.01 	(obj:0)
h-1,252                                          0.01 	(obj:0)
h-1,253                                          0.01 	(obj:0)
h-1,254                                          0.01 	(obj:0)
h-1,255                                          0.01 	(obj:0)
h-1,256                                          0.01 	(obj:0)
h-1,257                                          0.01 	(obj:0)
h-1,258                                          0.01 	(obj:0)
h-1,259                                          0.01 	(obj:0)
h-1,260                                          0.01 	(obj:0)
h-1,261                                          0.01 	(obj:0)
h-1,262                                          0.01 	(obj:0)
h-1,263                                          0.01 	(obj:0)
h-1,264                                          0.01 	(obj:0)
h-1,265                                          0.01 	(obj:0)
h-1,266                                          0.01 	(obj:0)
h-1,267                             0.802156875133514 	(obj:0)
h-1,268                             0.884509811401367 	(obj:0)
h-1,269                            0.0531372560560703 	(obj:0)
h-1,270                                          0.01 	(obj:0)
h-1,271                                          0.01 	(obj:0)
h-1,272                                          0.01 	(obj:0)
h-1,274                                          0.01 	(obj:0)
h-1,279                                          0.01 	(obj:0)
h-1,280                                          0.01 	(obj:0)
h-1,281                                          0.01 	(obj:0)
h-1,282                                          0.01 	(obj:0)
h-1,283                                          0.01 	(obj:0)
h-1,284                                          0.01 	(obj:0)
h-1,285                                          0.01 	(obj:0)
h-1,286                                          0.01 	(obj:0)
h-1,287                                          0.01 	(obj:0)
h-1,288                                          0.01 	(obj:0)
h-1,289                                          0.01 	(obj:0)
h-1,290                                          0.01 	(obj:0)
h-1,293                                          0.01 	(obj:0)
h-1,294                             0.135490203499794 	(obj:0)
h-1,295                                             1 	(obj:0)
h-1,296                             0.857058832645416 	(obj:0)
h-1,297                                          0.01 	(obj:0)
h-1,298                                          0.01 	(obj:0)
h-1,299                                          0.01 	(obj:0)
h-1,300                                          0.01 	(obj:0)
h-1,301                                          0.01 	(obj:0)
h-1,302                                          0.01 	(obj:0)
h-1,307                                          0.01 	(obj:0)
h-1,308                                          0.01 	(obj:0)
h-1,309                                          0.01 	(obj:0)
h-1,310                                          0.01 	(obj:0)
h-1,311                                          0.01 	(obj:0)
h-1,314                                          0.01 	(obj:0)
h-1,319                                          0.01 	(obj:0)
h-1,321                                          0.01 	(obj:0)
h-1,322                             0.382549027204514 	(obj:0)
h-1,323                                             1 	(obj:0)
h-1,324                             0.774705896377563 	(obj:0)
h-1,325                                          0.01 	(obj:0)
h-1,326                                          0.01 	(obj:0)
h-1,327                                          0.01 	(obj:0)
h-1,328                                          0.01 	(obj:0)
h-1,329                                          0.01 	(obj:0)
h-1,330                                          0.01 	(obj:0)
h-1,331                                          0.01 	(obj:0)
h-1,333                                          0.01 	(obj:0)
h-1,334                                          0.01 	(obj:0)
h-1,336                                          0.01 	(obj:0)
h-1,337                                          0.01 	(obj:0)
h-1,338                                          0.01 	(obj:0)
h-1,339                                          0.01 	(obj:0)
h-1,350                             0.539019634723663 	(obj:0)
h-1,351                             0.986078431606293 	(obj:0)
h-1,352                             0.311960796117783 	(obj:0)
h-1,353                                          0.01 	(obj:0)
h-1,354                                          0.01 	(obj:0)
h-1,355                                          0.01 	(obj:0)
h-1,356                                          0.01 	(obj:0)
h-1,357                                          0.01 	(obj:0)
h-1,358                                          0.01 	(obj:0)
h-1,361                                          0.01 	(obj:0)
h-1,362                                          0.01 	(obj:0)
h-1,366                                          0.01 	(obj:0)
h-1,368                            0.0100000000000136 	(obj:0)
h-1,370                                          0.01 	(obj:0)
h-1,372                                          0.01 	(obj:0)
h-1,377                             0.213529413342476 	(obj:0)
h-1,378                             0.919411768913269 	(obj:0)
h-1,379                             0.793921580314636 	(obj:0)
h-1,380                            0.0413725508749485 	(obj:0)
h-1,381                                          0.01 	(obj:0)
h-1,382                                          0.01 	(obj:0)
h-1,384                                          0.01 	(obj:0)
h-1,389                                          0.01 	(obj:0)
h-1,390                                          0.01 	(obj:0)
h-1,391                                          0.01 	(obj:0)
h-1,393                                          0.01 	(obj:0)
h-1,394                                          0.01 	(obj:0)
h-1,395                                          0.01 	(obj:0)
h-1,396                                          0.01 	(obj:0)
h-1,405                             0.476274510622025 	(obj:0)
h-1,406                                          0.99 	(obj:0)
h-1,407                             0.657058844566345 	(obj:0)
h-1,408                                          0.01 	(obj:0)
h-1,409                                          0.01 	(obj:0)
h-1,410                                          0.01 	(obj:0)
h-1,411                                          0.01 	(obj:0)
h-1,412                                          0.01 	(obj:0)
h-1,413                                          0.01 	(obj:0)
h-1,417                                          0.01 	(obj:0)
h-1,418                                          0.01 	(obj:0)
h-1,422                                          0.01 	(obj:0)
h-1,423                                          0.01 	(obj:0)
h-1,424                                          0.01 	(obj:0)
h-1,433                             0.660588254928589 	(obj:0)
h-1,434                             0.986078431606293 	(obj:0)
h-1,435                             0.327647069692612 	(obj:0)
h-1,436                                          0.01 	(obj:0)
h-1,437                                          0.01 	(obj:0)
h-1,438                                          0.01 	(obj:0)
h-1,439                                          0.01 	(obj:0)
h-1,440                                          0.01 	(obj:0)
h-1,441                                          0.01 	(obj:0)
h-1,442                                          0.01 	(obj:0)
h-1,443                            0.0100000000000031 	(obj:0)
h-1,444                                          0.01 	(obj:0)
h-1,445                                          0.01 	(obj:0)
h-1,446                                          0.01 	(obj:0)
h-1,447                                          0.01 	(obj:0)
h-1,448                                          0.01 	(obj:0)
h-1,449                                          0.01 	(obj:0)
h-1,450                                          0.01 	(obj:0)
h-1,455                                          0.01 	(obj:0)
h-1,456                                          0.01 	(obj:0)
h-1,460                            0.0841176488995552 	(obj:0)
h-1,461                             0.899803926944733 	(obj:0)
h-1,462                             0.833137264251709 	(obj:0)
h-1,463                                          0.01 	(obj:0)
h-1,464                                          0.01 	(obj:0)
h-1,465                                          0.01 	(obj:0)
h-1,466                                          0.01 	(obj:0)
h-1,467                                          0.01 	(obj:0)
h-1,468                                          0.01 	(obj:0)
h-1,469                                          0.01 	(obj:0)
h-1,473                                          0.01 	(obj:0)
h-1,474                                          0.01 	(obj:0)
h-1,475                                          0.01 	(obj:0)
h-1,477                                          0.01 	(obj:0)
h-1,484                                          0.01 	(obj:0)
h-1,485                                          0.01 	(obj:0)
h-1,488                             0.480588237047195 	(obj:0)
h-1,489                             0.986078431606293 	(obj:0)
h-1,490                             0.613529434204102 	(obj:0)
h-1,491                                          0.01 	(obj:0)
h-1,493                                          0.01 	(obj:0)
h-1,498                                          0.01 	(obj:0)
h-1,499                                          0.01 	(obj:0)
h-1,500                                          0.01 	(obj:0)
h-1,501                                          0.01 	(obj:0)
h-1,502                                          0.01 	(obj:0)
h-1,504                                          0.01 	(obj:0)
h-1,505                                          0.01 	(obj:0)
h-1,506                                          0.01 	(obj:0)
h-1,508                                          0.01 	(obj:0)
h-1,516                             0.582156887054443 	(obj:0)
h-1,517                                             1 	(obj:0)
h-1,518                             0.566862771511078 	(obj:0)
h-1,528                                          0.01 	(obj:0)
h-1,529                                          0.01 	(obj:0)
h-1,530                                          0.01 	(obj:0)
h-1,531                                          0.01 	(obj:0)
h-1,532                                          0.01 	(obj:0)
h-1,533                                          0.01 	(obj:0)
h-1,534                                          0.01 	(obj:0)
h-1,535                                          0.01 	(obj:0)
h-1,544                             0.884117653369904 	(obj:0)
h-1,545                             0.986078431606293 	(obj:0)
h-1,546                             0.248823543787003 	(obj:0)
h-1,555                                          0.01 	(obj:0)
h-1,556                                          0.01 	(obj:0)
h-1,557                                          0.01 	(obj:0)
h-1,558                                          0.01 	(obj:0)
h-1,559                                          0.01 	(obj:0)
h-1,562                                          0.01 	(obj:0)
h-1,563                                          0.01 	(obj:0)
h-1,564                                          0.01 	(obj:0)
h-1,571                             0.229215686917305 	(obj:0)
h-1,572                             0.974313726425171 	(obj:0)
h-1,573                             0.986078431606293 	(obj:0)
h-1,574                             0.248823543787003 	(obj:0)
h-1,583                                          0.01 	(obj:0)
h-1,584                                          0.01 	(obj:0)
h-1,585                                          0.01 	(obj:0)
h-1,589                                          0.01 	(obj:0)
h-1,590                                          0.01 	(obj:0)
h-1,591                                          0.01 	(obj:0)
h-1,599                             0.542941203117371 	(obj:0)
h-1,600                             0.986078431606293 	(obj:0)
h-1,601                             0.793921580314636 	(obj:0)
h-1,602                            0.0017647061124444 	(obj:0)
h-1,612                                          0.01 	(obj:0)
h-1,613                                          0.01 	(obj:0)
h-1,617                                          0.01 	(obj:0)
h-1,618                                          0.01 	(obj:0)
h-1,619                                          0.01 	(obj:0)
h-1,620                                          0.01 	(obj:0)
h-1,625                                          0.01 	(obj:0)
h-1,626                            0.0492156876623631 	(obj:0)
h-1,627                             0.833137264251709 	(obj:0)
h-1,628                             0.986078431606293 	(obj:0)
h-1,629                             0.464509805440903 	(obj:0)
h-1,640                                          0.01 	(obj:0)
h-1,641                                          0.01 	(obj:0)
h-1,648                                          0.01 	(obj:0)
h-1,649                                          0.01 	(obj:0)
h-1,650                                          0.01 	(obj:0)
h-1,651                                          0.01 	(obj:0)
h-1,654                           0.00960784383118152 	(obj:0)
h-1,655                             0.766470601558685 	(obj:0)
h-1,656                             0.680196096897125 	(obj:0)
h-1,657                            0.0292156876623631 	(obj:0)
h-1,668                                          0.01 	(obj:0)
h-1,670                                          0.01 	(obj:0)
h-1,676                                          0.01 	(obj:0)
h-1,677                                          0.01 	(obj:0)
h-1,678                                          0.01 	(obj:0)
h-1,679                                          0.01 	(obj:0)
h-1,680                                          0.01 	(obj:0)
h-1,704                                          0.01 	(obj:0)
h-1,705                                          0.01 	(obj:0)
h-1,706                                          0.01 	(obj:0)
h-1,707                                          0.01 	(obj:0)
h-1,708                                          0.01 	(obj:0)
h-1,709                                          0.01 	(obj:0)
h-1,710                                          0.01 	(obj:0)
h-1,711                                          0.01 	(obj:0)
h-1,712                                          0.01 	(obj:0)
h-1,713                                          0.01 	(obj:0)
h-1,714                                          0.01 	(obj:0)
h-1,715                                          0.01 	(obj:0)
h-1,716                                          0.01 	(obj:0)
h-1,717                                          0.01 	(obj:0)
h-1,718                                          0.01 	(obj:0)
h-1,719                                          0.01 	(obj:0)
h-1,720                                          0.01 	(obj:0)
h-1,721                                          0.01 	(obj:0)
h-1,725                                          0.01 	(obj:0)
h-1,734                                          0.01 	(obj:0)
h-1,735                                          0.01 	(obj:0)
h-1,736                                          0.01 	(obj:0)
h-1,737                                          0.01 	(obj:0)
h-1,738                                          0.01 	(obj:0)
h-1,739                                          0.01 	(obj:0)
h-1,740                                          0.01 	(obj:0)
h-1,741                                          0.01 	(obj:0)
h-1,742                                          0.01 	(obj:0)
h-1,743                                          0.01 	(obj:0)
h-1,744                                          0.01 	(obj:0)
h-1,745                                          0.01 	(obj:0)
h-1,746                                          0.01 	(obj:0)
h-1,747                                          0.01 	(obj:0)
h-1,748                                          0.01 	(obj:0)
h-1,749                                          0.01 	(obj:0)
h-1,750                                          0.01 	(obj:0)
h-1,753                                          0.01 	(obj:0)
h-1,760                                          0.01 	(obj:0)
h-1,761                                          0.01 	(obj:0)
h-1,764                                          0.01 	(obj:0)
h-1,765                                          0.01 	(obj:0)
h-1,766                                          0.01 	(obj:0)
h-1,768                                          0.01 	(obj:0)
h-1,769                                          0.01 	(obj:0)
h-1,770                                          0.01 	(obj:0)
h-1,771                                          0.01 	(obj:0)
h-1,772                                          0.01 	(obj:0)
h-1,773                                          0.01 	(obj:0)
h-1,774                                          0.01 	(obj:0)
h-1,775                                          0.01 	(obj:0)
h-1,778                                          0.01 	(obj:0)
h-1,779                                          0.01 	(obj:0)
z0,0                                 8.31393128208787 	(obj:0)
a0,0                                 8.31393128108787 	(obj:0)
z0,1                                 6.25090905286069 	(obj:0)
a0,1                                 6.25090905186069 	(obj:0)
z0,2                                 4.79604607968935 	(obj:0)
a0,2                                 4.79604607868935 	(obj:0)
z0,3                                 4.37667356853335 	(obj:0)
a0,3                                 4.37667356753335 	(obj:0)
z0,4                                0.751045976054244 	(obj:0)
a0,4                                0.751045976054244 	(obj:0)
z1,0                                 12.8384358173963 	(obj:0)
a1,0                                 12.8384358163963 	(obj:0)
z1,1                                 6.02601462115503 	(obj:0)
a1,1                                 6.02601462015503 	(obj:0)
z1,2                                 4.77980490960933 	(obj:0)
a1,2                                 4.77980490860933 	(obj:0)
z1,3                                 4.43398967177905 	(obj:0)
a1,3                                 4.43398967077905 	(obj:0)
z1,4                                 7.53282454165673 	(obj:0)
a1,4                                 7.53282454065673 	(obj:0)
z2,0                                -7.93058710372254 	(obj:0)
z2,2                               -0.532514242443052 	(obj:0)
z2,3                                -1.09710010284868 	(obj:0)
z2,4                                -4.73564692667008 	(obj:0)
z2,5                                -2.49070478585329 	(obj:0)
z2,6                                -2.22038243154971 	(obj:0)
z2,7                                -3.43203234221482 	(obj:0)
z2,8                              -0.0358617557790881 	(obj:0)
z2,9                                -3.49553638912748 	(obj:0)
